SLURM_JOB_ID: 55226504
SLURM_JOB_USER: vsc34888
SLURM_JOB_ACCOUNT: lp_elect_gen_modeling
SLURM_JOB_NAME: 3-bus_full_MILP
SLURM_CLUSTER_NAME: genius
SLURM_JOB_PARTITION: batch
SLURM_NNODES: 1
SLURM_NODELIST: r27i27n07
SLURM_JOB_CPUS_PER_NODE: 36
Date: Fri Sep 22 15:21:35 CEST 2023
Walltime: 02-00:00:00
========================================================================
Activation OK
Starting runs

 #### Academic research license - for non-commercial use only #### 

3-bus
/vsc-hard-mounts/leuven-data/348/vsc34888/JointResearch/05.Models/06.Benchmarking/A.The_full_year_MILP
gurobi
['oSN_Main_v2.py', '--case', '3-bus']
Namespace(case='3-bus', dir='/vsc-hard-mounts/leuven-data/348/vsc34888/JointResearch/05.Models/06.Benchmarking/A.The_full_year_MILP', solver='gurobi')
Namespace(case='3-bus', dir='/vsc-hard-mounts/leuven-data/348/vsc34888/JointResearch/05.Models/06.Benchmarking/A.The_full_year_MILP', solver='gurobi')
Reading    input data                 ...  0 s
Setting up input data                 ...  4 s
Generating objective function         ...  1 s
Generating operation & investment     ...  0 s
Generating balance                    ...  7 s
Generating storage operation          ...  0 s
Generating generation commitment      ...  2 s
Generating generation capacity        ...  0 s
Generating net P capacity bounds      ...  5 s
Generating net Q capacity bounds      ...  4 s
Generating net P constraints          ...  19 s
Generating net Q constraints          ...  20 s
Generating net voltage bounds         ...  0 s
Generating net non negative losses    ...  1 s
Generating net linear SOC2            ...  2 s
Generating net gshb injection         ...  0 s
Generating net bshb injection         ...  0 s
Econometric analysis  constraints     ...  0 s
Writing LP file                       ...  73 s
Set parameter Username
Set parameter TokenServer to value "SET-S-ME-LM3.luna.kuleuven.be"
Read LP format model from file /tmp/tmpwwmneoyk.pyomo.lp
Reading time = 5.13 seconds
x1: 2140323 rows, 677969 columns, 6964438 nonzeros
Set parameter QCPDual to value 1
Set parameter LogFile to value "/vsc-hard-mounts/leuven-data/348/vsc34888/JointResearch/05.Models/06.Benchmarking/A.The_full_year_MILP/3-bus/openStarNet_3-bus.log"
Set parameter Method to value 2
Set parameter MIPFocus to value 1
Set parameter Presolve to value 2
Set parameter RINS to value 100
Set parameter MIPGap to value 0.01
Set parameter Threads to value 36
Set parameter TimeLimit to value 604800
Set parameter IterationLimit to value 760000000
Gurobi Optimizer version 9.5.0 build v9.5.0rc5 (linux64)
Thread count: 36 physical cores, 36 logical processors, using up to 36 threads
Optimize a model with 2140323 rows, 677969 columns and 6964438 nonzeros
Model fingerprint: 0xe9e145fc
Variable types: 677960 continuous, 9 integer (9 binary)
Coefficient statistics:
  Matrix range     [9e-03, 4e+02]
  Objective range  [1e+00, 1e+00]
  Bounds range     [7e-06, 1e+00]
  RHS range        [7e-06, 1e+00]
Presolve removed 541635 rows and 78628 columns (presolve time = 5s) ...
Presolve removed 541635 rows and 78628 columns (presolve time = 10s) ...
Presolve removed 541635 rows and 78628 columns (presolve time = 15s) ...
Presolve removed 541635 rows and 78628 columns
Presolve time: 17.95s
Presolved: 1598688 rows, 599341 columns, 5771044 nonzeros
Variable types: 599332 continuous, 9 integer (9 binary)
Root relaxation presolve removed 0 rows and 0 columns (presolve time = 5s) ...
Root relaxation presolved: 1598688 rows, 599341 columns, 5771044 nonzeros

Root barrier log...

Ordering time: 0.52s

Barrier statistics:
 Dense cols : 9
 AA' NZ     : 2.192e+07
 Factor NZ  : 3.856e+07 (roughly 1.2 GB of memory)
 Factor Ops : 1.453e+09 (less than 1 second per iteration)
 Threads    : 35

                  Objective                Residual
Iter       Primal          Dual         Primal    Dual     Compl     Time
   0   6.76685994e+04 -9.08678163e+06  8.21e-01 2.25e+00  6.96e+00    32s
   1   2.06646004e+04 -1.20002164e+06  1.35e-01 3.50e-01  7.27e-01    33s
   2   7.50890563e+03 -2.75354397e+05  2.37e-03 3.09e-09  1.10e-01    34s
   3   9.41948679e+02 -1.14321565e+04  7.84e-05 4.60e-10  4.70e-03    34s
   4   3.98917589e+02 -9.07581571e+02  6.65e-08 1.04e-10  4.96e-04    35s
   5   2.44955998e+02 -9.76648330e+01  1.99e-08 1.56e-11  1.30e-04    36s
   6   1.76078010e+02  4.06211581e+01  7.10e-09 5.61e-12  5.14e-05    36s
   7   1.57068499e+02  9.78805620e+01  2.71e-09 2.52e-12  2.24e-05    37s
   8   1.50226396e+02  1.30725665e+02  1.33e-09 5.22e-13  7.39e-06    38s
   9   1.45113812e+02  1.39634723e+02  3.27e-10 4.88e-13  2.08e-06    38s
  10   1.44215624e+02  1.40930645e+02  1.67e-10 4.62e-13  1.24e-06    39s
  11   1.44195391e+02  1.41247182e+02  1.63e-10 3.34e-13  1.12e-06    40s
  12   1.44104426e+02  1.41406714e+02  1.45e-10 5.90e-13  1.02e-06    40s
  13   1.43994354e+02  1.41669128e+02  1.23e-10 3.06e-13  8.81e-07    41s
  14   1.43870688e+02  1.41847694e+02  1.00e-10 4.05e-13  7.67e-07    42s
  15   1.43842518e+02  1.41939155e+02  9.41e-11 4.51e-13  7.21e-07    42s
  16   1.43770878e+02  1.42394589e+02  1.40e-10 2.70e-13  5.21e-07    43s
  17   1.43667291e+02  1.42526955e+02  1.87e-10 1.14e-13  4.32e-07    44s
  18   1.43620757e+02  1.42586704e+02  1.83e-10 3.66e-13  3.92e-07    45s
  19   1.43609427e+02  1.42622813e+02  1.75e-10 4.69e-13  3.74e-07    46s
  20   1.43580302e+02  1.42717329e+02  1.76e-10 4.76e-13  3.27e-07    47s
  21   1.43570780e+02  1.42742142e+02  1.63e-10 1.65e-13  3.14e-07    47s
  22   1.43537589e+02  1.42865261e+02  1.92e-10 9.34e-13  2.55e-07    48s
  23   1.43516994e+02  1.42906046e+02  1.53e-10 1.14e-12  2.31e-07    49s
  24   1.43507534e+02  1.42922905e+02  1.53e-10 8.24e-13  2.22e-07    50s
  25   1.43486887e+02  1.42991271e+02  1.51e-10 7.99e-13  1.88e-07    51s
  26   1.43469489e+02  1.43019473e+02  1.39e-10 5.61e-13  1.71e-07    52s
  27   1.43458294e+02  1.43036690e+02  1.49e-10 7.89e-13  1.60e-07    53s
  28   1.43449472e+02  1.43059355e+02  1.44e-10 6.25e-13  1.48e-07    54s
  29   1.43441780e+02  1.43074871e+02  5.21e-10 1.04e-12  1.39e-07    55s
  30   1.43436621e+02  1.43085883e+02  4.87e-10 5.83e-13  1.33e-07    56s
  31   1.43429811e+02  1.43115215e+02  4.25e-10 6.32e-13  1.19e-07    56s
  32   1.43423134e+02  1.43122445e+02  4.47e-10 6.39e-13  1.14e-07    57s
  33   1.43407374e+02  1.43151187e+02  2.12e-09 1.09e-12  9.71e-08    58s
  34   1.43401663e+02  1.43159917e+02  1.91e-09 7.25e-13  9.16e-08    59s
  35   1.43394276e+02  1.43186540e+02  2.82e-09 6.15e-13  7.87e-08    60s
  36   1.43392379e+02  1.43192012e+02  2.57e-09 1.22e-12  7.59e-08    61s
  37   1.43390343e+02  1.43197718e+02  2.41e-09 6.00e-13  7.30e-08    62s
  38   1.43383616e+02  1.43203956e+02  1.82e-09 1.20e-12  6.81e-08    62s
  39   1.43383492e+02  1.43207980e+02  1.70e-09 4.87e-13  6.65e-08    63s
  40   1.43380998e+02  1.43219024e+02  1.54e-09 1.25e-12  6.14e-08    64s
  41   1.43379668e+02  1.43227757e+02  1.50e-09 7.50e-13  5.76e-08    65s
  42   1.43378269e+02  1.43230049e+02  1.43e-09 8.56e-13  5.62e-08    66s
  43   1.43376401e+02  1.43233947e+02  1.70e-09 8.24e-13  5.40e-08    67s
  44   1.43374447e+02  1.43244250e+02  1.65e-09 5.15e-13  4.93e-08    68s
  45   1.43372625e+02  1.43248606e+02  1.74e-09 9.38e-13  4.70e-08    69s
  46   1.43372261e+02  1.43252512e+02  1.76e-09 1.56e-13  4.54e-08    69s
  47   1.43370688e+02  1.43255203e+02  1.61e-09 8.42e-13  4.38e-08    70s
  48   1.43368894e+02  1.43256580e+02  1.46e-09 4.33e-13  4.26e-08    71s
  49   1.43367711e+02  1.43259746e+02  2.44e-09 3.98e-13  4.09e-08    72s
  50   1.43365916e+02  1.43262057e+02  5.70e-09 7.35e-13  3.94e-08    73s
  51   1.43364317e+02  1.43268375e+02  5.14e-09 1.30e-13  3.64e-08    74s
  52   1.43364020e+02  1.43270797e+02  4.97e-09 5.86e-13  3.53e-08    75s
  53   1.43362566e+02  1.43274497e+02  4.52e-09 2.77e-13  3.34e-08    76s
  54   1.43361123e+02  1.43276973e+02  4.20e-09 2.11e-13  3.19e-08    77s
  55   1.43360269e+02  1.43278770e+02  3.96e-09 1.87e-13  3.09e-08    78s
  56   1.43360027e+02  1.43282548e+02  3.89e-09 2.63e-13  2.94e-08    78s
  57   1.43358748e+02  1.43288212e+02  3.57e-09 9.59e-13  2.67e-08    79s
  58   1.43358260e+02  1.43289339e+02  3.44e-09 6.75e-14  2.61e-08    81s
  59   1.43357812e+02  1.43290001e+02  3.29e-09 3.69e-13  2.57e-08    82s
  60   1.43356981e+02  1.43294207e+02  3.06e-09 3.27e-13  2.38e-08    83s
  61   1.43356361e+02  1.43295711e+02  2.90e-09 1.17e-12  2.30e-08    84s
  62   1.43356118e+02  1.43297881e+02  2.83e-09 1.10e-13  2.21e-08    85s
  63   1.43355720e+02  1.43298477e+02  2.72e-09 4.83e-13  2.17e-08    86s
  64   1.43355404e+02  1.43300662e+02  2.62e-09 1.87e-13  2.07e-08    87s
  65   1.43354983e+02  1.43301389e+02  2.52e-09 3.91e-13  2.03e-08    88s
  66   1.43354398e+02  1.43302971e+02  2.38e-09 2.31e-13  1.95e-08    89s
  67   1.43354132e+02  1.43304153e+02  2.32e-09 3.62e-13  1.89e-08    92s
  68   1.43353520e+02  1.43304687e+02  2.15e-09 4.83e-13  1.85e-08    93s
  69   1.43353345e+02  1.43307242e+02  2.11e-09 8.42e-13  1.75e-08    94s
  70   1.43353011e+02  1.43308040e+02  2.03e-09 2.84e-13  1.70e-08    95s
  71   1.43352802e+02  1.43308306e+02  1.97e-09 7.21e-13  1.69e-08    95s
  72   1.43352450e+02  1.43311009e+02  1.89e-09 4.90e-13  1.57e-08    96s
  73   1.43352088e+02  1.43311710e+02  1.79e-09 3.23e-13  1.53e-08    98s
  74   1.43351613e+02  1.43312652e+02  2.33e-09 6.54e-13  1.48e-08    99s
  75   1.43351170e+02  1.43314516e+02  2.07e-09 5.22e-13  1.39e-08   100s
  76   1.43351049e+02  1.43315159e+02  1.87e-09 3.91e-13  1.36e-08   101s
  77   1.43350733e+02  1.43315696e+02  1.87e-09 6.96e-13  1.33e-08   102s
  78   1.43350584e+02  1.43316313e+02  1.82e-09 2.95e-13  1.30e-08   104s
  79   1.43350286e+02  1.43317790e+02  2.96e-09 5.76e-13  1.23e-08   106s
  80   1.43349949e+02  1.43319159e+02  2.79e-09 5.72e-13  1.17e-08   107s
  81   1.43349664e+02  1.43320133e+02  2.29e-09 3.02e-13  1.12e-08   108s
  82   1.43349299e+02  1.43320823e+02  2.98e-09 6.57e-13  1.08e-08   110s
  83   1.43349159e+02  1.43321770e+02  2.89e-09 3.98e-13  1.04e-08   112s
  84   1.43349062e+02  1.43322025e+02  2.82e-09 5.12e-13  1.02e-08   116s
  85   1.43348911e+02  1.43323094e+02  2.73e-09 4.28e-13  9.78e-09   117s
  86   1.43348528e+02  1.43324013e+02  2.12e-09 4.19e-13  9.29e-09   118s
  87   1.43348449e+02  1.43324387e+02  2.08e-09 7.50e-13  9.12e-09   119s
  88   1.43348394e+02  1.43325099e+02  2.10e-09 4.05e-13  8.83e-09   120s
  89   1.43348230e+02  1.43325664e+02  2.09e-09 4.58e-13  8.55e-09   121s
  90   1.43348152e+02  1.43326930e+02  2.00e-09 7.57e-13  8.04e-09   123s
  91   1.43348043e+02  1.43327271e+02  1.94e-09 7.78e-13  7.87e-09   124s
  92   1.43347754e+02  1.43328085e+02  1.76e-09 2.56e-13  7.45e-09   125s
  93   1.43347675e+02  1.43328502e+02  1.71e-09 6.93e-13  7.27e-09   127s
  94   1.43347579e+02  1.43329598e+02  1.65e-09 8.38e-13  6.81e-09   128s
  95   1.43347103e+02  1.43329913e+02  1.39e-09 6.47e-13  6.51e-09   129s
  96   1.43347065e+02  1.43330111e+02  1.38e-09 8.03e-13  6.42e-09   131s
  97   1.43346951e+02  1.43330948e+02  1.31e-09 3.62e-13  6.06e-09   132s
  98   1.43346787e+02  1.43331716e+02  1.21e-09 3.34e-13  5.71e-09   133s
  99   1.43346718e+02  1.43332159e+02  1.17e-09 3.16e-13  5.52e-09   134s
 100   1.43346633e+02  1.43332497e+02  1.13e-09 5.97e-13  5.36e-09   136s
 101   1.43346589e+02  1.43332805e+02  1.11e-09 5.51e-13  5.22e-09   137s
 102   1.43346403e+02  1.43333245e+02  2.20e-09 1.73e-12  4.99e-09   139s
 103   1.43346370e+02  1.43333748e+02  2.16e-09 4.83e-13  4.78e-09   142s
 104   1.43346130e+02  1.43334002e+02  1.92e-09 3.13e-13  4.60e-09   143s
 105   1.43346027e+02  1.43334742e+02  1.81e-09 3.23e-13  4.28e-09   144s
 106   1.43345994e+02  1.43335154e+02  1.77e-09 4.90e-13  4.11e-09   146s
 107   1.43345924e+02  1.43335294e+02  1.69e-09 5.79e-13  4.03e-09   147s
 108   1.43345790e+02  1.43335657e+02  1.54e-09 3.87e-13  3.84e-09   148s
 109   1.43345660e+02  1.43336098e+02  1.39e-09 2.42e-13  3.62e-09   149s
 110   1.43345515e+02  1.43336479e+02  1.23e-09 2.18e-13  3.42e-09   150s
 111   1.43345493e+02  1.43337473e+02  1.21e-09 2.82e-13  3.04e-09   151s
 112   1.43345420e+02  1.43337651e+02  1.12e-09 7.60e-13  2.94e-09   152s
 113   1.43345408e+02  1.43338170e+02  1.11e-09 3.48e-13  2.74e-09   153s
 114   1.43345348e+02  1.43338638e+02  1.04e-09 5.58e-13  2.54e-09   155s
 115   1.43345166e+02  1.43339293e+02  8.28e-10 1.88e-13  2.23e-09   156s
 116   1.43345011e+02  1.43340112e+02  8.87e-10 7.99e-13  1.86e-09   157s
 117   1.43344971e+02  1.43340256e+02  8.32e-10 2.10e-13  1.79e-09   158s
 118   1.43344803e+02  1.43340755e+02  5.84e-10 4.65e-13  1.53e-09   160s
 119   1.43344794e+02  1.43341136e+02  5.72e-10 4.83e-13  1.39e-09   161s
 120   1.43344780e+02  1.43341146e+02  5.53e-10 5.93e-13  1.38e-09   162s
 121   1.43344748e+02  1.43341250e+02  5.07e-10 8.17e-14  1.33e-09   163s
 122   1.43344702e+02  1.43341477e+02  4.43e-10 4.05e-13  1.22e-09   166s
 123   1.43344686e+02  1.43341790e+02  8.93e-10 4.97e-14  1.10e-09   169s
 124   1.43344666e+02  1.43341893e+02  3.78e-08 1.12e-13  1.05e-09   172s
 125   1.43344641e+02  1.43342095e+02  4.15e-08 6.54e-13  9.65e-10   174s
 126   1.43344612e+02  1.43342296e+02  3.75e-08 5.04e-13  8.78e-10   177s
 127   1.43344543e+02  1.43342931e+02  2.68e-08 2.49e-13  6.11e-10   178s
 128   1.43344485e+02  1.43343392e+02  1.81e-08 1.04e-13  4.14e-10   180s
 129   1.43344475e+02  1.43343595e+02  1.68e-08 6.75e-13  3.34e-10   181s
 130   1.43344464e+02  1.43343697e+02  1.52e-08 2.50e-13  2.91e-10   183s
 131   1.43344403e+02  1.43343721e+02  6.69e-09 3.77e-13  2.58e-10   184s
 132   1.43344401e+02  1.43343949e+02  6.35e-09 4.16e-13  1.71e-10   187s
 133   1.43344395e+02  1.43344158e+02  5.50e-09 6.36e-13  8.97e-11   189s
 134   1.43344372e+02  1.43344301e+02  2.39e-09 1.99e-13  2.71e-11   190s
 135   1.43344371e+02  1.43344335e+02  2.17e-09 4.58e-13  1.35e-11   193s
 136   1.43344358e+02  1.43344341e+02  2.35e-07 2.70e-13  6.32e-12   194s
 137   1.43344358e+02  1.43344346e+02  2.34e-07 7.46e-13  4.56e-12   196s
 138   1.43344354e+02  1.43344347e+02  2.50e-07 1.05e-13  2.87e-12   196s
 139   1.43344354e+02  1.43344349e+02  2.35e-07 8.53e-14  2.19e-12   198s
 140   1.43344354e+02  1.43344352e+02  1.58e-07 3.20e-13  8.60e-13   199s
 141   1.43344354e+02  1.43344352e+02  2.61e-07 1.31e-12  8.03e-13   200s
 142   1.43344354e+02  1.43344352e+02  2.76e-07 5.19e-13  6.46e-13   201s

Barrier solved model in 142 iterations and 200.91 seconds (177.35 work units)
Optimal objective 1.43344354e+02


Root crossover log...

  130316 DPushes remaining with DInf 1.0853070e-04               202s
   30029 DPushes remaining with DInf 6.7220717e-04               205s
   28004 DPushes remaining with DInf 6.7220717e-04               211s
   27034 DPushes remaining with DInf 6.7220717e-04               216s
   25952 DPushes remaining with DInf 7.4974482e-04               220s
   24422 DPushes remaining with DInf 7.4974482e-04               227s
   23182 DPushes remaining with DInf 7.4974482e-04               231s
   14586 DPushes remaining with DInf 7.4974482e-04               235s
       0 DPushes remaining with DInf 4.0301060e-04               239s

  158912 PPushes remaining with PInf 1.3331088e-03               239s
   85442 PPushes remaining with PInf 8.6037623e-06               240s
       0 PPushes remaining with PInf 4.4492811e-01               246s

  Push phase complete: Pinf 4.4492811e-01, Dinf 1.3470879e+00    246s


Root simplex log...

Iteration    Objective       Primal Inf.    Dual Inf.      Time
  246562    1.4334436e+02   0.000000e+00   1.347088e+00    247s
  246732    1.4334435e+02   0.000000e+00   6.192778e+00    253s
  246882    1.4334435e+02   0.000000e+00   1.934798e+01    258s
  247022    1.4334435e+02   0.000000e+00   1.929425e+01    263s
  247152    1.4334435e+02   0.000000e+00   1.924362e+01    268s
  247292    1.4334435e+02   0.000000e+00   1.739771e+01    274s
  247462    1.4334435e+02   0.000000e+00   1.315521e-01    280s
  247652    1.4334435e+02   0.000000e+00   4.110055e-01    287s
  247842    1.4334435e+02   0.000000e+00   3.018093e-01    293s
  248052    1.4334435e+02   0.000000e+00   4.822930e-02    300s
  248232    1.4334435e+02   0.000000e+00   6.648320e-01    306s
  248372    1.4334435e+02   0.000000e+00   4.856909e-01    311s
  248512    1.4334435e+02   0.000000e+00   4.358958e-01    316s
  248652    1.4334435e+02   0.000000e+00   8.864560e-01    322s
  249272    1.4334435e+02   0.000000e+00   3.820681e-02    325s
  249682    1.4334435e+02   0.000000e+00   2.516333e-02    331s
  250762    1.4334435e+02   9.844347e-02   0.000000e+00    339s
  250891    1.4334435e+02   0.000000e+00   0.000000e+00    341s
  250891    1.4334435e+02   0.000000e+00   0.000000e+00    344s

Root relaxation: objective 1.433444e+02, 250891 iterations, 320.20 seconds (599.21 work units)

    Nodes    |    Current Node    |     Objective Bounds      |     Work
 Expl Unexpl |  Obj  Depth IntInf | Incumbent    BestBd   Gap | It/Node Time

     0     0  143.34435    0    6          -  143.34435      -     -  344s
H    0     0                     175.6757161  143.34435  18.4%     -  365s
     0     0  143.34435    0    6  175.67572  143.34435  18.4%     -  597s
     0     2  143.34435    0    6  175.67572  143.34435  18.4%     - 12140s
     1     4  146.27619    1    7  175.67572  143.34437  18.4% 225604 18687s
     3     2  151.79833    2    6  175.67572  146.27703  16.7% 430785 24363s
     7     4  155.05264    3    6  175.67572  151.79834  13.6% 401164 26190s
     9     6  159.13506    4    4  175.67572  155.05293  11.7% 364400 29696s
    13     6  161.61905    5    4  175.67572  159.13519  9.42% 321910 33405s
    19     6  164.15960    6    2  175.67572  161.61929  8.00% 275477 34299s
    25     6  164.16931    7    2  175.67572  164.15960  6.56% 227044 38470s
    31     6  168.40781    8    1  175.67572  164.16931  6.55% 442851 38749s
    37     0     cutoff    9       175.67572  168.40813  4.14% 379226 38773s
*   38     0               9     174.6647492  168.40813  3.58% 370028 38773s
*   39     0               9     174.5685333  171.94125  1.51% 360953 38773s

Explored 43 nodes (14360435 simplex iterations) in 38774.29 seconds (90044.23 work units)
Thread count was 36 (of 36 available processors)

Solution count 3: 174.569 174.665 175.676 

Optimal solution found (tolerance 1.00e-02)
Warning: max constraint violation (3.4739e-06) exceeds tolerance
Best objective 1.745685333430e+02, best bound 1.745685333430e+02, gap 0.0000%
Termination condition:  optimal
# ==========================================================
# = Solver Results                                         =
# ==========================================================
# ----------------------------------------------------------
#   Problem Information
# ----------------------------------------------------------
Problem: 
- Name: x1
  Lower bound: 174.56853334298188
  Upper bound: 174.56853334298188
  Number of objectives: 1
  Number of constraints: 2140323
  Number of variables: 677969
  Number of binary variables: 9
  Number of integer variables: 9
  Number of continuous variables: 677960
  Number of nonzeros: 6964438
  Sense: minimize
# ----------------------------------------------------------
#   Solver Information
# ----------------------------------------------------------
Solver: 
- Status: ok
  Return code: 0
  Message: Model was solved to optimality (subject to tolerances), and an optimal solution is available.
  Termination condition: optimal
  Termination message: Model was solved to optimality (subject to tolerances), and an optimal solution is available.
  Wall time: 38774.319381952286
  Error rc: 0
  Time: 38784.460017204285
# ----------------------------------------------------------
#   Solution Information
# ----------------------------------------------------------
Solution: 
- number of solutions: 0
  number of solutions displayed: 0
# ============================================================================= #
# ============================================================================= #
fixing: vNetworkInvest[2030,Node_1,Node_2,cac2]
fixing: vNetworkInvest[2030,Node_1,Node_3,cac1]
fixing: vNetworkInvest[2030,Node_1,Node_2,cac1]
fixing: vNetworkInvest[2030,Node_2,Node_3,cac3]
fixing: vNetworkInvest[2030,Node_2,Node_3,cac2]
fixing: vNetworkInvest[2030,Node_2,Node_3,cac1]
fixing: vNetworkInvest[2030,Node_1,Node_2,cac3]
fixing: vNetworkInvest[2030,Node_1,Node_3,cac3]
fixing: vNetworkInvest[2030,Node_1,Node_3,cac2]
Number of fixed variables:  9
# ============================================================================= #
# ============================================================================= #
WARNING: Implicitly replacing the Component attribute dual (type=<class
'pyomo.core.base.suffix.Suffix'>) on block 'openStarNet - Open Version of the
StartNetLite Model (Long Term Transmission Expansion Planning) - Version 1.0.0
- January 16, 2023' with a new Component (type=<class
'pyomo.core.base.suffix.Suffix'>). This is usually indicative of a modelling
error. To avoid this warning, use block.del_component() and
block.add_component().
WARNING: Implicitly replacing the Component attribute rc (type=<class
'pyomo.core.base.suffix.Suffix'>) on block 'openStarNet - Open Version of the
StartNetLite Model (Long Term Transmission Expansion Planning) - Version 1.0.0
- January 16, 2023' with a new Component (type=<class
'pyomo.core.base.suffix.Suffix'>). This is usually indicative of a modelling
error. To avoid this warning, use block.del_component() and
block.add_component().
# ==========================================================
# = Solver Results                                         =
# ==========================================================
# ----------------------------------------------------------
#   Problem Information
# ----------------------------------------------------------
Problem: 
- Name: x1
  Lower bound: 174.5685333429853
  Upper bound: 174.5685333429853
  Number of objectives: 1
  Number of constraints: 2140323
  Number of variables: 677960
  Number of binary variables: 0
  Number of integer variables: 0
  Number of continuous variables: 677960
  Number of nonzeros: 5706445
  Sense: minimize
# ----------------------------------------------------------
#   Solver Information
# ----------------------------------------------------------
Solver: 
- Status: ok
  Return code: 0
  Message: Model was solved to optimality (subject to tolerances), and an optimal solution is available.
  Termination condition: optimal
  Termination message: Model was solved to optimality (subject to tolerances), and an optimal solution is available.
  Wall time: 14.045369863510132
  Error rc: 0
  Time: 28.720742225646973
# ----------------------------------------------------------
#   Solution Information
# ----------------------------------------------------------
Solution: 
- number of solutions: 0
  number of solutions displayed: 0
Solving                               ...  38923 s
Objective function value                   174.57 M€
Objective function value                   174.5685333429853
Writing         cost summary results  ...  0 s
Writing           investment results  ...  0 s
Writing       energy balance results  ...  3 s
Writing    network operation results  ...  3 s
Writing generation operation results  ...  2 s
Writing        ESS operation results  ...  0 s
Writing             economic results  ...  0 s

 #### Academic research license - for non-commercial use only #### 

Elapsed time: 39075 seconds
